NAME: Random_85_3
ELLAPSED_TIME_(ms): 2
TOUR_SIZE: 2535.2385
TOUR_SECTION
0
10
48
24
43
11
15
6
33
29
84
51
16
63
39
56
14
52
66
18
37
2
19
46
9
21
70
20
1
35
67
34
30
3
61
58
38
22
25
71
62
53
57
31
12
13
50
60
55
75
54
78
28
45
44
26
49
59
36
68
40
76
69
42
79
65
80
8
4
27
47
77
23
64
41
81
32
5
7
17
83
82
72
73
74
0
EOF
